c preprocessed version of celar10, 76 vertices, 421 edges
p td 76 421
1 0
69 0
12 0
66 0
1 2
1 39
40 1
69 1
45 1
3 2
23 2
2 25
2 26
2 49
2 30
2 38
2 52
2 33
2 47
2 46
2 37
2 50
2 32
2 59
2 56
34 2
36 2
40 2
39 2
31 2
44 2
55 2
45 2
58 2
60 2
4 3
3 24
27 3
29 3
3 25
3 26
3 49
3 52
3 53
3 50
3 54
3 56
3 57
3 30
3 51
22 3
35 3
34 3
36 3
55 3
45 3
67 3
68 3
58 3
5 4
23 4
4 29
4 25
4 30
4 51
4 50
4 57
4 46
4 28
4 48
22 4
31 4
44 4
45 4
5 6
5 25
5 29
5 24
5 51
43 5
61 5
7 6
6 8
6 17
9 6
7 8
7 17
7 18
7 20
7 19
9 7
9 8
17 8
65 8
10 9
9 65
64 9
11 10
10 65
64 10
66 10
63 10
11 12
64 11
66 11
63 11
12 13
12 69
66 12
14 13
69 13
15 14
15 16
15 21
16 17
21 16
16 18
16 20
18 17
20 17
19 18
18 20
19 20
22 21
21 35
22 23
22 25
22 26
22 27
22 46
22 28
22 29
22 30
22 49
22 48
22 51
22 52
22 53
22 54
22 47
22 33
22 50
22 56
22 57
35 22
31 22
44 22
55 22
45 22
58 22
60 22
23 24
23 33
23 27
23 52
23 47
23 46
23 53
23 50
23 32
23 56
23 28
23 57
23 48
55 23
45 23
58 23
25 24
35 24
27 24
46 24
26 24
29 24
30 24
49 24
51 24
52 24
53 24
50 24
24 59
24 56
24 57
34 24
36 24
31 24
44 24
55 24
45 24
67 24
68 24
58 24
25 26
29 25
25 49
25 30
25 51
31 25
44 25
60 25
27 26
26 28
26 49
26 30
26 48
26 50
31 26
44 26
55 26
45 26
58 26
27 28
27 46
27 49
27 52
27 53
27 50
27 56
27 57
27 47
27 54
27 48
55 27
45 27
58 27
29 28
46 28
47 28
49 28
51 28
54 28
53 28
28 48
55 28
45 28
58 28
29 30
29 51
29 48
45 29
31 30
49 30
30 51
44 30
45 30
31 32
31 49
31 48
31 51
31 44
55 31
45 31
43 31
61 31
33 32
38 32
37 32
32 59
39 32
44 32
45 32
34 33
33 46
38 33
33 37
39 33
45 33
34 35
34 37
34 36
45 34
67 34
68 34
62 34
36 35
67 35
68 35
36 37
45 36
67 36
68 36
62 36
38 37
41 37
42 37
40 37
39 37
45 37
39 38
45 38
58 38
60 38
40 39
45 39
40 41
40 42
41 42
43 41
61 41
60 41
43 42
61 42
60 42
43 44
43 62
43 61
43 63
60 43
45 44
44 48
44 49
44 51
55 44
61 44
45 46
45 49
45 48
45 47
45 54
45 53
45 50
45 51
45 52
45 56
45 57
55 45
45 58
45 67
45 68
60 45
47 46
46 48
55 46
47 48
47 54
55 47
58 47
49 48
51 48
54 48
55 48
58 48
49 50
55 49
58 49
51 50
53 50
52 50
50 56
50 57
55 50
52 51
51 56
52 53
55 52
52 56
52 57
53 54
53 56
53 57
55 53
58 53
55 54
58 54
55 56
55 57
55 58
55 67
55 68
56 57
58 59
67 58
68 58
60 58
60 59
60 61
62 60
60 63
61 62
61 63
62 63
63 64
63 66
64 65
64 66
67 68
70 72
70 75
70 13
70 71
70 14
70 73
70 74
71 75
71 72
71 14
71 73
71 74
71 15
72 75
72 7
72 19
72 73
72 74
73 75
73 14
73 15
73 74
74 75
74 7
74 14
74 13
74 12
74 11
74 8
74 15
74 65
74 64
74 19
74 69
75 13
75 14
